! B3LYP D3BJ def2-SVP CPCM(Water) TightSCF RIJCOSX def2/J Opt Freq

%maxcore 3000

%pal
  nprocs 8
end

* xyzfile 0 1 058.xyz
