! B3LYP D3BJ def2-SVP TightSCF RIJCOSX def2/J CPCM(Water) Opt Freq

%pal
  nprocs 8
end

%maxcore 3000

%scf
  MaxIter 500
end

%output
  Print[P_Mulliken] 1
  Print[P_Loewdin] 1
end

* xyzfile 0 1 input/CMR_GOLD_044_start.xyz
