! B3LYP D3BJ def2-SVP CPCM(Water) TightSCF RIJCOSX def2/J SP KeepDens

%maxcore 3000

%pal
  nprocs 8
end

%moinp "geom.gbw"

%output
  Print[P_Mulliken] 1
  Print[P_Loewdin] 1
end

* xyzfile 0 1 geom.xyz
