! B3LYP D3BJ def2-SVP CPCM(Water) TightSCF RIJCOSX def2/J Opt Freq

%maxcore 3000

%pal
  nprocs 8
end

%geom
  MaxIter 300
end

* xyzfile 0 1 geom_clean.xyz
