! B3LYP D3BJ def2-SVP TightSCF RIJCOSX def2/J CPCM(Water)

%pal
  nprocs 8
end

%maxcore 3000

%scf
  MaxIter 500
end

%output
  Print[P_Mulliken] 1
  Print[P_Loewdin] 1
end

* xyzfile 0 1 geometry/CMR_GOLD_090_opt.xyz
